Optimal - objective value -1042.00000000
      0 x_0                      0                     -10
      1 x_1                      0                       0
      2 x_2                      1                     -29
      3 x_3                      0                      24
      4 x_4                      1                       5
      5 x_5                      0                       0
      6 x_6                      0                     -12
      7 x_7                      1                     -43
      8 x_8                      0                       0
      9 x_9                      1                      32
     10 x_10                     0                       0
     11 x_11                     1                     -42
     12 x_12                     1                       0
     13 x_13                     0                     -68
     14 x_14                     1                     -61
     15 x_15                     0                       0
     16 x_16                     0                      12
     17 x_17                     0                       0
     18 x_18                     0                     -24
     19 x_19                     1                       0
     20 x_20                     0                      -1
     21 x_21                     1                     -79
     22 x_22                     0                      41
     23 x_23                     1                      21
     24 x_24                     1                     -89
     25 x_25                     0                      24
     26 x_26                     1                     -62
     27 x_27                     0                     -47
     28 x_28                     1                       0
     29 x_29                     0                       0
     30 x_30                     0                       0
     31 x_31                     1                       0
     32 x_32                     0                       0
     33 x_33                     1                       0
     34 x_34                     0                       0
     35 x_35                     1                     -92
     36 x_36                     0                      -2
     37 x_37                     1                     -90
     38 x_38                     0                     -52
     39 x_39                     1                     -44
